Optimal - objective value 336.00000000
      0 F                    336                       1
      2 m_26_27                1                       0
      4 m_25_27                1                       0
      6 m_24_27                1                       0
      8 m_23_27                1                       0
     10 m_22_27                1                       0
     12 m_21_27                1                       0
     14 m_20_27                1                       0
     16 m_19_27                1                       0
     18 m_18_27                1                       0
     20 m_17_27                1                       0
     22 m_16_27                1                       0
     24 m_15_27                1                       0
     26 m_14_27                1                       0
     28 m_13_27                1                       0
     30 m_12_27                1                       0
     32 m_11_27                1                       0
     34 m_10_27                1                       0
     36 m_9_27                 1                       0
     38 m_8_27                 1                       0
     40 m_7_27                 1                       0
     42 m_6_27                 1                       0
     44 m_5_27                 1                       0
     46 m_4_27                 1                       0
     48 m_3_27                 1                       0
     50 m_2_27                 1                       0
     52 m_1_27                 1                       0
     54 m_0_27                 1                       0
     56 m_25_26                1                       0
     58 m_24_26                1                       0
     60 m_23_26                1                       0
     62 m_22_26                1                       0
     64 m_21_26                1                       0
     66 m_20_26                1                       0
     68 m_19_26                1                       0
     70 m_18_26                1                       0
     72 m_17_26                1                       0
     74 m_16_26                1                       0
     76 m_15_26                1                       0
     78 m_14_26                1                       0
     80 m_13_26                1                       0
     82 m_12_26                1                       0
     84 m_11_26                1                       0
     86 m_10_26                1                       0
     88 m_9_26                 1                       0
     90 m_8_26                 1                       0
     92 m_7_26                 1                       0
     94 m_6_26                 1                       0
     96 m_5_26                 1                       0
     98 m_4_26                 1                       0
    100 m_3_26                 1                       0
    102 m_2_26                 1                       0
    104 m_1_26                 1                       0
    106 m_0_26                 1                       0
    108 m_24_25                1                       0
    110 m_23_25                1                       0
    112 m_22_25                1                       0
    114 m_21_25                1                       0
    116 m_20_25                1                       0
    118 m_19_25                1                       0
    120 m_18_25                1                       0
    122 m_17_25                1                       0
    124 m_16_25                1                       0
    126 m_15_25                1                       0
    128 m_14_25                1                       0
    130 m_13_25                1                       0
    132 m_12_25                1                       0
    134 m_11_25                1                       0
    136 m_10_25                1                       0
    138 m_9_25                 1                       0
    140 m_8_25                 1                       0
    142 m_7_25                 1                       0
    144 m_6_25                 1                       0
    146 m_5_25                 1                       0
    148 m_4_25                 1                       0
    150 m_3_25                 1                       0
    152 m_2_25                 1                       0
    154 m_1_25                 1                       0
    156 m_0_25                 1                       0
    157 m_24_23                1                       0
    159 m_24_22                1                       0
    162 m_21_24                1                       0
    164 m_20_24                1                       0
    166 m_19_24                1                       0
    168 m_18_24                1                       0
    170 m_17_24                1                       0
    172 m_16_24                1                       0
    174 m_15_24                1                       0
    176 m_14_24                1                       0
    178 m_13_24                1                       0
    180 m_12_24                1                       0
    182 m_11_24                1                       0
    184 m_10_24                1                       0
    186 m_9_24                 1                       0
    188 m_8_24                 1                       0
    190 m_7_24                 1                       0
    192 m_6_24                 1                       0
    194 m_5_24                 1                       0
    196 m_4_24                 1                       0
    198 m_3_24                 1                       0
    200 m_2_24                 1                       0
    202 m_1_24                 1                       0
    204 m_0_24                 1                       0
    206 m_22_23                1                       0
    208 m_21_23                1                       0
    210 m_20_23                1                       0
    212 m_19_23                1                       0
    214 m_18_23                1                       0
    216 m_17_23                1                       0
    218 m_16_23                1                       0
    220 m_15_23                1                       0
    222 m_14_23                1                       0
    224 m_13_23                1                       0
    226 m_12_23                1                       0
    228 m_11_23                1                       0
    230 m_10_23                1                       0
    232 m_9_23                 1                       0
    234 m_8_23                 1                       0
    236 m_7_23                 1                       0
    238 m_6_23                 1                       0
    240 m_5_23                 1                       0
    242 m_4_23                 1                       0
    244 m_3_23                 1                       0
    246 m_2_23                 1                       0
    248 m_1_23                 1                       0
    250 m_0_23                 1                       0
    252 m_21_22                1                       0
    254 m_20_22                1                       0
    256 m_19_22                1                       0
    258 m_18_22                1                       0
    260 m_17_22                1                       0
    262 m_16_22                1                       0
    264 m_15_22                1                       0
    266 m_14_22                1                       0
    268 m_13_22                1                       0
    270 m_12_22                1                       0
    272 m_11_22                1                       0
    274 m_10_22                1                       0
    276 m_9_22                 1                       0
    278 m_8_22                 1                       0
    280 m_7_22                 1                       0
    282 m_6_22                 1                       0
    284 m_5_22                 1                       0
    286 m_4_22                 1                       0
    288 m_3_22                 1                       0
    290 m_2_22                 1                       0
    292 m_1_22                 1                       0
    294 m_0_22                 1                       0
    295 m_21_20                1                       0
    298 m_19_21                1                       0
    300 m_18_21                1                       0
    302 m_17_21                1                       0
    304 m_16_21                1                       0
    306 m_15_21                1                       0
    308 m_14_21                1                       0
    310 m_13_21                1                       0
    312 m_12_21                1                       0
    314 m_11_21                1                       0
    316 m_10_21                1                       0
    318 m_9_21                 1                       0
    320 m_8_21                 1                       0
    322 m_7_21                 1                       0
    324 m_6_21                 1                       0
    326 m_5_21                 1                       0
    328 m_4_21                 1                       0
    330 m_3_21                 1                       0
    332 m_2_21                 1                       0
    334 m_1_21                 1                       0
    336 m_0_21                 1                       0
    338 m_19_20                1                       0
    340 m_18_20                1                       0
    342 m_17_20                1                       0
    344 m_16_20                1                       0
    346 m_15_20                1                       0
    348 m_14_20                1                       0
    350 m_13_20                1                       0
    352 m_12_20                1                       0
    354 m_11_20                1                       0
    356 m_10_20                1                       0
    358 m_9_20                 1                       0
    360 m_8_20                 1                       0
    362 m_7_20                 1                       0
    364 m_6_20                 1                       0
    366 m_5_20                 1                       0
    368 m_4_20                 1                       0
    370 m_3_20                 1                       0
    372 m_2_20                 1                       0
    374 m_1_20                 1                       0
    376 m_0_20                 1                       0
    378 m_18_19                1                       0
    380 m_17_19                1                       0
    382 m_16_19                1                       0
    384 m_15_19                1                       0
    386 m_14_19                1                       0
    388 m_13_19                1                       0
    390 m_12_19                1                       0
    392 m_11_19                1                       0
    394 m_10_19                1                       0
    396 m_9_19                 1                       0
    398 m_8_19                 1                       0
    400 m_7_19                 1                       0
    402 m_6_19                 1                       0
    404 m_5_19                 1                       0
    406 m_4_19                 1                       0
    408 m_3_19                 1                       0
    410 m_2_19                 1                       0
    412 m_1_19                 1                       0
    414 m_0_19                 1                       0
    416 m_17_18                1                       0
    418 m_16_18                1                       0
    420 m_15_18                1                       0
    422 m_14_18                1                       0
    424 m_13_18                1                       0
    426 m_12_18                1                       0
    428 m_11_18                1                       0
    430 m_10_18                1                       0
    432 m_9_18                 1                       0
    434 m_8_18                 1                       0
    436 m_7_18                 1                       0
    438 m_6_18                 1                       0
    440 m_5_18                 1                       0
    442 m_4_18                 1                       0
    444 m_3_18                 1                       0
    446 m_2_18                 1                       0
    448 m_1_18                 1                       0
    450 m_0_18                 1                       0
    452 m_16_17                1                       0
    454 m_15_17                1                       0
    456 m_14_17                1                       0
    458 m_13_17                1                       0
    460 m_12_17                1                       0
    462 m_11_17                1                       0
    464 m_10_17                1                       0
    466 m_9_17                 1                       0
    468 m_8_17                 1                       0
    470 m_7_17                 1                       0
    472 m_6_17                 1                       0
    474 m_5_17                 1                       0
    476 m_4_17                 1                       0
    478 m_3_17                 1                       0
    480 m_2_17                 1                       0
    482 m_1_17                 1                       0
    484 m_0_17                 1                       0
    485 m_16_15                1                       0
    488 m_14_16                1                       0
    489 m_16_13                1                       0
    492 m_12_16                1                       0
    494 m_11_16                1                       0
    495 m_16_10                1                       0
    498 m_9_16                 1                       0
    500 m_8_16                 1                       0
    502 m_7_16                 1                       0
    504 m_6_16                 1                       0
    506 m_5_16                 1                       0
    507 m_16_4                 1                       0
    510 m_3_16                 1                       0
    512 m_2_16                 1                       0
    514 m_1_16                 1                       0
    516 m_0_16                 1                       0
    518 m_14_15                1                       0
    520 m_13_15                1                       0
    522 m_12_15                1                       0
    524 m_11_15                1                       0
    526 m_10_15                1                       0
    528 m_9_15                 1                       0
    530 m_8_15                 1                       0
    532 m_7_15                 1                       0
    534 m_6_15                 1                       0
    536 m_5_15                 1                       0
    538 m_4_15                 1                       0
    540 m_3_15                 1                       0
    542 m_2_15                 1                       0
    544 m_1_15                 1                       0
    546 m_0_15                 1                       0
    547 m_14_13                1                       0
    550 m_12_14                1                       0
    552 m_11_14                1                       0
    553 m_14_10                1                       0
    556 m_9_14                 1                       0
    558 m_8_14                 1                       0
    560 m_7_14                 1                       0
    562 m_6_14                 1                       0
    564 m_5_14                 1                       0
    565 m_14_4                 1                       0
    568 m_3_14                 1                       0
    570 m_2_14                 1                       0
    572 m_1_14                 1                       0
    574 m_0_14                 1                       0
    576 m_12_13                1                       0
    578 m_11_13                1                       0
    580 m_10_13                1                       0
    582 m_9_13                 1                       0
    584 m_8_13                 1                       0
    586 m_7_13                 1                       0
    588 m_6_13                 1                       0
    590 m_5_13                 1                       0
    592 m_4_13                 1                       0
    594 m_3_13                 1                       0
    596 m_2_13                 1                       0
    598 m_1_13                 1                       0
    600 m_0_13                 1                       0
    601 m_12_11                1                       0
    603 m_12_10                1                       0
    606 m_9_12                 1                       0
    608 m_8_12                 1                       0
    610 m_7_12                 1                       0
    612 m_6_12                 1                       0
    613 m_12_5                 1                       0
    615 m_12_4                 1                       0
    618 m_3_12                 1                       0
    620 m_2_12                 1                       0
    622 m_1_12                 1                       0
    624 m_0_12                 1                       0
    625 m_11_10                1                       0
    628 m_9_11                 1                       0
    630 m_8_11                 1                       0
    632 m_7_11                 1                       0
    634 m_6_11                 1                       0
    636 m_5_11                 1                       0
    637 m_11_4                 1                       0
    640 m_3_11                 1                       0
    642 m_2_11                 1                       0
    644 m_1_11                 1                       0
    646 m_0_11                 1                       0
    648 m_9_10                 1                       0
    650 m_8_10                 1                       0
    652 m_7_10                 1                       0
    654 m_6_10                 1                       0
    656 m_5_10                 1                       0
    658 m_4_10                 1                       0
    660 m_3_10                 1                       0
    662 m_2_10                 1                       0
    664 m_1_10                 1                       0
    666 m_0_10                 1                       0
    667 m_9_8                  1                       0
    670 m_7_9                  1                       0
    671 m_9_6                  1                       0
    673 m_9_5                  1                       0
    675 m_9_4                  1                       0
    678 m_3_9                  1                       0
    679 m_9_2                  1                       0
    682 m_1_9                  1                       0
    684 m_0_9                  1                       0
    686 m_7_8                  1                       0
    687 m_8_6                  1                       0
    689 m_8_5                  1                       0
    691 m_8_4                  1                       0
    694 m_3_8                  1                       0
    696 m_2_8                  1                       0
    698 m_1_8                  1                       0
    700 m_0_8                  1                       0
    701 m_7_6                  1                       0
    703 m_7_5                  1                       0
    705 m_7_4                  1                       0
    707 m_7_3                  1                       0
    709 m_7_2                  1                       0
    712 m_1_7                  1                       0
    714 m_0_7                  1                       0
    715 m_6_5                  1                       0
    717 m_6_4                  1                       0
    720 m_3_6                  1                       0
    722 m_2_6                  1                       0
    724 m_1_6                  1                       0
    726 m_0_6                  1                       0
    727 m_5_4                  1                       0
    730 m_3_5                  1                       0
    732 m_2_5                  1                       0
    734 m_1_5                  1                       0
    736 m_0_5                  1                       0
    738 m_3_4                  1                       0
    740 m_2_4                  1                       0
    742 m_1_4                  1                       0
    744 m_0_4                  1                       0
    745 m_3_2                  1                       0
    748 m_1_3                  1                       0
    750 m_0_3                  1                       0
    752 m_1_2                  1                       0
    754 m_0_2                  1                       0
    756 m_0_1                  1                       0
    757 s_27                  28                       0
    758 m_27_27                1                       0
    759 s_26                  27                       0
    760 m_26_26                1                       0
    761 s_25                  26                       0
    762 m_25_25                1                       0
    763 s_24                  23                       0
    764 m_24_24                1                       0
    765 s_23                  25                       0
    766 m_23_23                1                       0
    767 s_22                  24                       0
    768 m_22_22                1                       0
    769 s_21                  21                       0
    770 m_21_21                1                       0
    771 s_20                  22                       0
    772 m_20_20                1                       0
    773 s_19                  20                       0
    774 m_19_19                1                       0
    775 s_18                  19                       0
    776 m_18_18                1                       0
    777 s_17                  18                       0
    778 m_17_17                1                       0
    779 s_16                  13                       0
    780 m_16_16                1                       0
    781 s_15                  17                       0
    782 m_15_15                1                       0
    783 s_14                  12                       0
    784 m_14_14                1                       0
    785 s_13                  16                       0
    786 m_13_13                1                       0
    787 s_12                   9                       0
    788 m_12_12                1                       0
    789 s_11                  11                       0
    790 m_11_11                1                       0
    791 s_10                  15                       0
    792 m_10_10                1                       0
    793 s_9                    5                       0
    794 m_9_9                  1                       0
    795 s_8                    7                       0
    796 m_8_8                  1                       0
    797 s_7                    3                       0
    798 m_7_7                  1                       0
    799 s_6                    8                       0
    800 m_6_6                  1                       0
    801 s_5                   10                       0
    802 m_5_5                  1                       0
    803 s_4                   14                       0
    804 m_4_4                  1                       0
    805 s_3                    4                       0
    806 m_3_3                  1                       0
    807 s_2                    6                       0
    808 m_2_2                  1                       0
    809 s_1                    2                       0
    810 m_1_1                  1                       0
    811 s_0                    1                       0
    812 m_0_0                  1                       0
    813 y_27_27                1                       0
    814 y_26_27                1                       0
    815 y_25_27                1                       0
    842 y_26_26                1                       0
    843 y_25_26                1                       0
    844 y_24_26                1                       0
    846 y_22_26                1                       0
    871 y_25_25                1                       0
    872 y_24_25                1                       0
    873 y_23_25                1                       0
    874 y_22_25                1                       0
    900 y_24_24                1                       0
    903 y_21_24                1                       0
    904 y_20_24                1                       0
    905 y_19_24                1                       0
    906 y_18_24                1                       0
    928 y_24_23                1                       0
    929 y_23_23                1                       0
    930 y_22_23                1                       0
    932 y_20_23                1                       0
    934 y_18_23                1                       0
    956 y_24_22                1                       0
    958 y_22_22                1                       0
    960 y_20_22                1                       0
    961 y_19_22                1                       0
    962 y_18_22                1                       0
    987 y_21_21                1                       0
    989 y_19_21                1                       0
    990 y_18_21                1                       0
    991 y_17_21                1                       0
    992 y_16_21                1                       0
    995 y_13_21                1                       0
   1015 y_21_20                1                       0
   1016 y_20_20                1                       0
   1017 y_19_20                1                       0
   1018 y_18_20                1                       0
   1020 y_16_20                1                       0
   1023 y_13_20                1                       0
   1045 y_19_19                1                       0
   1046 y_18_19                1                       0
   1047 y_17_19                1                       0
   1048 y_16_19                1                       0
   1049 y_15_19                1                       0
   1051 y_13_19                1                       0
   1074 y_18_18                1                       0
   1075 y_17_18                1                       0
   1076 y_16_18                1                       0
   1077 y_15_18                1                       0
   1078 y_14_18                1                       0
   1079 y_13_18                1                       0
   1103 y_17_17                1                       0
   1104 y_16_17                1                       0
   1105 y_15_17                1                       0
   1106 y_14_17                1                       0
   1107 y_13_17                1                       0
   1108 y_12_17                1                       0
   1113 y_7_17                 1                       0
   1132 y_16_16                1                       0
   1134 y_14_16                1                       0
   1136 y_12_16                1                       0
   1137 y_11_16                1                       0
   1140 y_8_16                 1                       0
   1141 y_7_16                 1                       0
   1148 y_0_16                 1                       0
   1160 y_16_15                1                       0
   1161 y_15_15                1                       0
   1162 y_14_15                1                       0
   1163 y_13_15                1                       0
   1164 y_12_15                1                       0
   1166 y_10_15                1                       0
   1169 y_7_15                 1                       0
   1190 y_14_14                1                       0
   1192 y_12_14                1                       0
   1193 y_11_14                1                       0
   1195 y_9_14                 1                       0
   1196 y_8_14                 1                       0
   1197 y_7_14                 1                       0
   1204 y_0_14                 1                       0
   1216 y_16_13                1                       0
   1218 y_14_13                1                       0
   1219 y_13_13                1                       0
   1220 y_12_13                1                       0
   1222 y_10_13                1                       0
   1224 y_8_13                 1                       0
   1225 y_7_13                 1                       0
   1248 y_12_12                1                       0
   1251 y_9_12                 1                       0
   1252 y_8_12                 1                       0
   1253 y_7_12                 1                       0
   1254 y_6_12                 1                       0
   1260 y_0_12                 1                       0
   1276 y_12_11                1                       0
   1277 y_11_11                1                       0
   1279 y_9_11                 1                       0
   1280 y_8_11                 1                       0
   1281 y_7_11                 1                       0
   1283 y_5_11                 1                       0
   1288 y_0_11                 1                       0
   1300 y_16_10                1                       0
   1302 y_14_10                1                       0
   1304 y_12_10                1                       0
   1306 y_10_10                1                       0
   1308 y_8_10                 1                       0
   1309 y_7_10                 1                       0
   1312 y_4_10                 1                       0
   1316 y_0_10                 1                       0
   1335 y_9_9                  1                       0
   1337 y_7_9                  1                       0
   1341 y_3_9                  1                       0
   1344 y_0_9                  1                       0
   1363 y_9_8                  1                       0
   1364 y_8_8                  1                       0
   1365 y_7_8                  1                       0
   1370 y_2_8                  1                       0
   1372 y_0_8                  1                       0
   1393 y_7_7                  1                       0
   1399 y_1_7                  1                       0
   1400 y_0_7                  1                       0
   1419 y_9_6                  1                       0
   1420 y_8_6                  1                       0
   1421 y_7_6                  1                       0
   1422 y_6_6                  1                       0
   1428 y_0_6                  1                       0
   1444 y_12_5                 1                       0
   1447 y_9_5                  1                       0
   1448 y_8_5                  1                       0
   1449 y_7_5                  1                       0
   1451 y_5_5                  1                       0
   1456 y_0_5                  1                       0
   1468 y_16_4                 1                       0
   1470 y_14_4                 1                       0
   1472 y_12_4                 1                       0
   1476 y_8_4                  1                       0
   1477 y_7_4                  1                       0
   1480 y_4_4                  1                       0
   1484 y_0_4                  1                       0
   1505 y_7_3                  1                       0
   1509 y_3_3                  1                       0
   1512 y_0_3                  1                       0
   1531 y_9_2                  1                       0
   1533 y_7_2                  1                       0
   1538 y_2_2                  1                       0
   1540 y_0_2                  1                       0
   1567 y_1_1                  1                       0
   1568 y_0_1                  1                       0
   1596 y_0_0                  1                       0
